1154.0 13368.0 3388.0 
1157.0 13296.0 3311.0 
1184.0 13160.0 2985.0 
1172.0 13439.0 3053.0 
1185.0 13329.0 2947.0 
1154.0 13368.0 3388.0 
1161.0 13364.0 3063.0 
1182.0 13243.0 2952.0 
1155.0 13416.0 3354.0 
1198.0 13074.0 2749.0 
1198.0 13074.0 2749.0 
1212.0 13074.0 2700.0 
1172.0 13203.0 3077.0 
1198.0 13074.0 2749.0 
1151.0 13350.0 3393.0 
1182.0 13453.0 2935.0 
1198.0 13072.0 2781.0 
1192.0 13142.0 2864.0 
1187.0 13119.0 2906.0 
1151.0 13469.0 3164.0 
1151.0 13345.0 3414.0 
1138.0 13430.0 3316.0 
1212.0 13053.0 2713.0 
1163.0 13204.0 3219.0 
1191.0 13144.0 2838.0 
1185.0 13351.0 2921.0 
1184.0 13160.0 2985.0 
1166.0 13490.0 2929.0 
1162.0 13347.0 3085.0 
1174.0 13461.0 2924.0 
